66 7 56 169 133 170 37 154 63 100 171 13 41 113 86 98 150 123 160 94 119 76 193 29 6 50 75 33 82 45 188 92 69 61 17 114 96 149 157 167 109 135 129 81 79 140 49 47 173 62 36 87 42 101 116 102 27 8 120 191 34 72 40 74 106 118 148 162 60 199 166 9 124 107 164 196 108 15 84 128 182 139 105 95 141 185 192 159 65 172 44 122 46 43 147 54 16 80 130 10 88 156 30 20 83 152 112 35 0 103 99 51 1 138 71 23 144 91 31 32 197 73 131 165 53 177 85 2 179 178 12 22 104 158 67 132 58 142 195 38 137 163 64 77 24 143 93 198 4 28 70 121 174 3 26 126 25 134 184 151 146 117 187 89 186 90 115 14 19 18 48 5 78 127 136 175 168 39 111 52 181 145 183 110 176 68 59 155 125 153 194 21 180 190 161 11 97 55 57 189 

